<instance format="XCSP3" type="CSP">
  <variables>
    <array id="x" size="[10][10]"> 1..100 </array>
  </variables>
  <constraints>
    <allDifferent> x[][] </allDifferent>
    <group>
      <extension>
        <list> %... </list>
        <supports> (1,2,*,*)(1,*,2,*)(1,*,*,2)(2,3,*,*)(2,*,3,*)(2,*,*,3)(3,4,*,*)(3,*,4,*)(3,*,*,4)(4,5,*,*)(4,*,5,*)(4,*,*,5)(5,6,*,*)(5,*,6,*)(5,*,*,6)(6,7,*,*)(6,*,7,*)(6,*,*,7)(7,8,*,*)(7,*,8,*)(7,*,*,8)(8,9,*,*)(8,*,9,*)(8,*,*,9)(9,10,*,*)(9,*,10,*)(9,*,*,10)(10,11,*,*)(10,*,11,*)(10,*,*,11)(11,12,*,*)(11,*,12,*)(11,*,*,12)(12,13,*,*)(12,*,13,*)(12,*,*,13)(13,14,*,*)(13,*,14,*)(13,*,*,14)(14,15,*,*)(14,*,15,*)(14,*,*,15)(15,16,*,*)(15,*,16,*)(15,*,*,16)(16,17,*,*)(16,*,17,*)(16,*,*,17)(17,18,*,*)(17,*,18,*)(17,*,*,18)(18,19,*,*)(18,*,19,*)(18,*,*,19)(19,20,*,*)(19,*,20,*)(19,*,*,20)(20,21,*,*)(20,*,21,*)(20,*,*,21)(21,22,*,*)(21,*,22,*)(21,*,*,22)(22,23,*,*)(22,*,23,*)(22,*,*,23)(23,24,*,*)(23,*,24,*)(23,*,*,24)(24,25,*,*)(24,*,25,*)(24,*,*,25)(25,26,*,*)(25,*,26,*)(25,*,*,26)(26,27,*,*)(26,*,27,*)(26,*,*,27)(27,28,*,*)(27,*,28,*)(27,*,*,28)(28,29,*,*)(28,*,29,*)(28,*,*,29)(29,30,*,*)(29,*,30,*)(29,*,*,30)(30,31,*,*)(30,*,31,*)(30,*,*,31)(31,32,*,*)(31,*,32,*)(31,*,*,32)(32,33,*,*)(32,*,33,*)(32,*,*,33)(33,34,*,*)(33,*,34,*)(33,*,*,34)(34,35,*,*)(34,*,35,*)(34,*,*,35)(35,36,*,*)(35,*,36,*)(35,*,*,36)(36,37,*,*)(36,*,37,*)(36,*,*,37)(37,38,*,*)(37,*,38,*)(37,*,*,38)(38,39,*,*)(38,*,39,*)(38,*,*,39)(39,40,*,*)(39,*,40,*)(39,*,*,40)(40,41,*,*)(40,*,41,*)(40,*,*,41)(41,42,*,*)(41,*,42,*)(41,*,*,42)(42,43,*,*)(42,*,43,*)(42,*,*,43)(43,44,*,*)(43,*,44,*)(43,*,*,44)(44,45,*,*)(44,*,45,*)(44,*,*,45)(45,46,*,*)(45,*,46,*)(45,*,*,46)(46,47,*,*)(46,*,47,*)(46,*,*,47)(47,48,*,*)(47,*,48,*)(47,*,*,48)(48,49,*,*)(48,*,49,*)(48,*,*,49)(49,50,*,*)(49,*,50,*)(49,*,*,50)(50,51,*,*)(50,*,51,*)(50,*,*,51)(51,52,*,*)(51,*,52,*)(51,*,*,52)(52,53,*,*)(52,*,53,*)(52,*,*,53)(53,54,*,*)(53,*,54,*)(53,*,*,54)(54,55,*,*)(54,*,55,*)(54,*,*,55)(55,56,*,*)(55,*,56,*)(55,*,*,56)(56,57,*,*)(56,*,57,*)(56,*,*,57)(57,58,*,*)(57,*,58,*)(57,*,*,58)(58,59,*,*)(58,*,59,*)(58,*,*,59)(59,60,*,*)(59,*,60,*)(59,*,*,60)(60,61,*,*)(60,*,61,*)(60,*,*,61)(61,62,*,*)(61,*,62,*)(61,*,*,62)(62,63,*,*)(62,*,63,*)(62,*,*,63)(63,64,*,*)(63,*,64,*)(63,*,*,64)(64,65,*,*)(64,*,65,*)(64,*,*,65)(65,66,*,*)(65,*,66,*)(65,*,*,66)(66,67,*,*)(66,*,67,*)(66,*,*,67)(67,68,*,*)(67,*,68,*)(67,*,*,68)(68,69,*,*)(68,*,69,*)(68,*,*,69)(69,70,*,*)(69,*,70,*)(69,*,*,70)(70,71,*,*)(70,*,71,*)(70,*,*,71)(71,72,*,*)(71,*,72,*)(71,*,*,72)(72,73,*,*)(72,*,73,*)(72,*,*,73)(73,74,*,*)(73,*,74,*)(73,*,*,74)(74,75,*,*)(74,*,75,*)(74,*,*,75)(75,76,*,*)(75,*,76,*)(75,*,*,76)(76,77,*,*)(76,*,77,*)(76,*,*,77)(77,78,*,*)(77,*,78,*)(77,*,*,78)(78,79,*,*)(78,*,79,*)(78,*,*,79)(79,80,*,*)(79,*,80,*)(79,*,*,80)(80,81,*,*)(80,*,81,*)(80,*,*,81)(81,82,*,*)(81,*,82,*)(81,*,*,82)(82,83,*,*)(82,*,83,*)(82,*,*,83)(83,84,*,*)(83,*,84,*)(83,*,*,84)(84,85,*,*)(84,*,85,*)(84,*,*,85)(85,86,*,*)(85,*,86,*)(85,*,*,86)(86,87,*,*)(86,*,87,*)(86,*,*,87)(87,88,*,*)(87,*,88,*)(87,*,*,88)(88,89,*,*)(88,*,89,*)(88,*,*,89)(89,90,*,*)(89,*,90,*)(89,*,*,90)(90,91,*,*)(90,*,91,*)(90,*,*,91)(91,92,*,*)(91,*,92,*)(91,*,*,92)(92,93,*,*)(92,*,93,*)(92,*,*,93)(93,94,*,*)(93,*,94,*)(93,*,*,94)(94,95,*,*)(94,*,95,*)(94,*,*,95)(95,96,*,*)(95,*,96,*)(95,*,*,96)(96,97,*,*)(96,*,97,*)(96,*,*,97)(97,98,*,*)(97,*,98,*)(97,*,*,98)(98,99,*,*)(98,*,99,*)(98,*,*,99)(99,100,*,*)(99,*,100,*)(99,*,*,100)(100,*,*,*) </supports>
      </extension>
      <args> x[0..1][0..1] </args>
      <args> x[0][9] x[0..1][8] x[1][9] </args>
      <args> x[9][0] x[8][0..1] x[9][1] </args>
      <args> x[9][9] x[8][8..9] x[9][8] </args>
    </group>
    <group>
      <extension>
        <list> %... </list>
        <supports> (1,2,*,*,*,*)(1,*,2,*,*,*)(1,*,*,2,*,*)(1,*,*,*,2,*)(1,*,*,*,*,2)(2,3,*,*,*,*)(2,*,3,*,*,*)(2,*,*,3,*,*)(2,*,*,*,3,*)(2,*,*,*,*,3)(3,4,*,*,*,*)(3,*,4,*,*,*)(3,*,*,4,*,*)(3,*,*,*,4,*)(3,*,*,*,*,4)(4,5,*,*,*,*)(4,*,5,*,*,*)(4,*,*,5,*,*)(4,*,*,*,5,*)(4,*,*,*,*,5)(5,6,*,*,*,*)(5,*,6,*,*,*)(5,*,*,6,*,*)(5,*,*,*,6,*)(5,*,*,*,*,6)(6,7,*,*,*,*)(6,*,7,*,*,*)(6,*,*,7,*,*)(6,*,*,*,7,*)(6,*,*,*,*,7)(7,8,*,*,*,*)(7,*,8,*,*,*)(7,*,*,8,*,*)(7,*,*,*,8,*)(7,*,*,*,*,8)(8,9,*,*,*,*)(8,*,9,*,*,*)(8,*,*,9,*,*)(8,*,*,*,9,*)(8,*,*,*,*,9)(9,10,*,*,*,*)(9,*,10,*,*,*)(9,*,*,10,*,*)(9,*,*,*,10,*)(9,*,*,*,*,10)(10,11,*,*,*,*)(10,*,11,*,*,*)(10,*,*,11,*,*)(10,*,*,*,11,*)(10,*,*,*,*,11)(11,12,*,*,*,*)(11,*,12,*,*,*)(11,*,*,12,*,*)(11,*,*,*,12,*)(11,*,*,*,*,12)(12,13,*,*,*,*)(12,*,13,*,*,*)(12,*,*,13,*,*)(12,*,*,*,13,*)(12,*,*,*,*,13)(13,14,*,*,*,*)(13,*,14,*,*,*)(13,*,*,14,*,*)(13,*,*,*,14,*)(13,*,*,*,*,14)(14,15,*,*,*,*)(14,*,15,*,*,*)(14,*,*,15,*,*)(14,*,*,*,15,*)(14,*,*,*,*,15)(15,16,*,*,*,*)(15,*,16,*,*,*)(15,*,*,16,*,*)(15,*,*,*,16,*)(15,*,*,*,*,16)(16,17,*,*,*,*)(16,*,17,*,*,*)(16,*,*,17,*,*)(16,*,*,*,17,*)(16,*,*,*,*,17)(17,18,*,*,*,*)(17,*,18,*,*,*)(17,*,*,18,*,*)(17,*,*,*,18,*)(17,*,*,*,*,18)(18,19,*,*,*,*)(18,*,19,*,*,*)(18,*,*,19,*,*)(18,*,*,*,19,*)(18,*,*,*,*,19)(19,20,*,*,*,*)(19,*,20,*,*,*)(19,*,*,20,*,*)(19,*,*,*,20,*)(19,*,*,*,*,20)(20,21,*,*,*,*)(20,*,21,*,*,*)(20,*,*,21,*,*)(20,*,*,*,21,*)(20,*,*,*,*,21)(21,22,*,*,*,*)(21,*,22,*,*,*)(21,*,*,22,*,*)(21,*,*,*,22,*)(21,*,*,*,*,22)(22,23,*,*,*,*)(22,*,23,*,*,*)(22,*,*,23,*,*)(22,*,*,*,23,*)(22,*,*,*,*,23)(23,24,*,*,*,*)(23,*,24,*,*,*)(23,*,*,24,*,*)(23,*,*,*,24,*)(23,*,*,*,*,24)(24,25,*,*,*,*)(24,*,25,*,*,*)(24,*,*,25,*,*)(24,*,*,*,25,*)(24,*,*,*,*,25)(25,26,*,*,*,*)(25,*,26,*,*,*)(25,*,*,26,*,*)(25,*,*,*,26,*)(25,*,*,*,*,26)(26,27,*,*,*,*)(26,*,27,*,*,*)(26,*,*,27,*,*)(26,*,*,*,27,*)(26,*,*,*,*,27)(27,28,*,*,*,*)(27,*,28,*,*,*)(27,*,*,28,*,*)(27,*,*,*,28,*)(27,*,*,*,*,28)(28,29,*,*,*,*)(28,*,29,*,*,*)(28,*,*,29,*,*)(28,*,*,*,29,*)(28,*,*,*,*,29)(29,30,*,*,*,*)(29,*,30,*,*,*)(29,*,*,30,*,*)(29,*,*,*,30,*)(29,*,*,*,*,30)(30,31,*,*,*,*)(30,*,31,*,*,*)(30,*,*,31,*,*)(30,*,*,*,31,*)(30,*,*,*,*,31)(31,32,*,*,*,*)(31,*,32,*,*,*)(31,*,*,32,*,*)(31,*,*,*,32,*)(31,*,*,*,*,32)(32,33,*,*,*,*)(32,*,33,*,*,*)(32,*,*,33,*,*)(32,*,*,*,33,*)(32,*,*,*,*,33)(33,34,*,*,*,*)(33,*,34,*,*,*)(33,*,*,34,*,*)(33,*,*,*,34,*)(33,*,*,*,*,34)(34,35,*,*,*,*)(34,*,35,*,*,*)(34,*,*,35,*,*)(34,*,*,*,35,*)(34,*,*,*,*,35)(35,36,*,*,*,*)(35,*,36,*,*,*)(35,*,*,36,*,*)(35,*,*,*,36,*)(35,*,*,*,*,36)(36,37,*,*,*,*)(36,*,37,*,*,*)(36,*,*,37,*,*)(36,*,*,*,37,*)(36,*,*,*,*,37)(37,38,*,*,*,*)(37,*,38,*,*,*)(37,*,*,38,*,*)(37,*,*,*,38,*)(37,*,*,*,*,38)(38,39,*,*,*,*)(38,*,39,*,*,*)(38,*,*,39,*,*)(38,*,*,*,39,*)(38,*,*,*,*,39)(39,40,*,*,*,*)(39,*,40,*,*,*)(39,*,*,40,*,*)(39,*,*,*,40,*)(39,*,*,*,*,40)(40,41,*,*,*,*)(40,*,41,*,*,*)(40,*,*,41,*,*)(40,*,*,*,41,*)(40,*,*,*,*,41)(41,42,*,*,*,*)(41,*,42,*,*,*)(41,*,*,42,*,*)(41,*,*,*,42,*)(41,*,*,*,*,42)(42,43,*,*,*,*)(42,*,43,*,*,*)(42,*,*,43,*,*)(42,*,*,*,43,*)(42,*,*,*,*,43)(43,44,*,*,*,*)(43,*,44,*,*,*)(43,*,*,44,*,*)(43,*,*,*,44,*)(43,*,*,*,*,44)(44,45,*,*,*,*)(44,*,45,*,*,*)(44,*,*,45,*,*)(44,*,*,*,45,*)(44,*,*,*,*,45)(45,46,*,*,*,*)(45,*,46,*,*,*)(45,*,*,46,*,*)(45,*,*,*,46,*)(45,*,*,*,*,46)(46,47,*,*,*,*)(46,*,47,*,*,*)(46,*,*,47,*,*)(46,*,*,*,47,*)(46,*,*,*,*,47)(47,48,*,*,*,*)(47,*,48,*,*,*)(47,*,*,48,*,*)(47,*,*,*,48,*)(47,*,*,*,*,48)(48,49,*,*,*,*)(48,*,49,*,*,*)(48,*,*,49,*,*)(48,*,*,*,49,*)(48,*,*,*,*,49)(49,50,*,*,*,*)(49,*,50,*,*,*)(49,*,*,50,*,*)(49,*,*,*,50,*)(49,*,*,*,*,50)(50,51,*,*,*,*)(50,*,51,*,*,*)(50,*,*,51,*,*)(50,*,*,*,51,*)(50,*,*,*,*,51)(51,52,*,*,*,*)(51,*,52,*,*,*)(51,*,*,52,*,*)(51,*,*,*,52,*)(51,*,*,*,*,52)(52,53,*,*,*,*)(52,*,53,*,*,*)(52,*,*,53,*,*)(52,*,*,*,53,*)(52,*,*,*,*,53)(53,54,*,*,*,*)(53,*,54,*,*,*)(53,*,*,54,*,*)(53,*,*,*,54,*)(53,*,*,*,*,54)(54,55,*,*,*,*)(54,*,55,*,*,*)(54,*,*,55,*,*)(54,*,*,*,55,*)(54,*,*,*,*,55)(55,56,*,*,*,*)(55,*,56,*,*,*)(55,*,*,56,*,*)(55,*,*,*,56,*)(55,*,*,*,*,56)(56,57,*,*,*,*)(56,*,57,*,*,*)(56,*,*,57,*,*)(56,*,*,*,57,*)(56,*,*,*,*,57)(57,58,*,*,*,*)(57,*,58,*,*,*)(57,*,*,58,*,*)(57,*,*,*,58,*)(57,*,*,*,*,58)(58,59,*,*,*,*)(58,*,59,*,*,*)(58,*,*,59,*,*)(58,*,*,*,59,*)(58,*,*,*,*,59)(59,60,*,*,*,*)(59,*,60,*,*,*)(59,*,*,60,*,*)(59,*,*,*,60,*)(59,*,*,*,*,60)(60,61,*,*,*,*)(60,*,61,*,*,*)(60,*,*,61,*,*)(60,*,*,*,61,*)(60,*,*,*,*,61)(61,62,*,*,*,*)(61,*,62,*,*,*)(61,*,*,62,*,*)(61,*,*,*,62,*)(61,*,*,*,*,62)(62,63,*,*,*,*)(62,*,63,*,*,*)(62,*,*,63,*,*)(62,*,*,*,63,*)(62,*,*,*,*,63)(63,64,*,*,*,*)(63,*,64,*,*,*)(63,*,*,64,*,*)(63,*,*,*,64,*)(63,*,*,*,*,64)(64,65,*,*,*,*)(64,*,65,*,*,*)(64,*,*,65,*,*)(64,*,*,*,65,*)(64,*,*,*,*,65)(65,66,*,*,*,*)(65,*,66,*,*,*)(65,*,*,66,*,*)(65,*,*,*,66,*)(65,*,*,*,*,66)(66,67,*,*,*,*)(66,*,67,*,*,*)(66,*,*,67,*,*)(66,*,*,*,67,*)(66,*,*,*,*,67)(67,68,*,*,*,*)(67,*,68,*,*,*)(67,*,*,68,*,*)(67,*,*,*,68,*)(67,*,*,*,*,68)(68,69,*,*,*,*)(68,*,69,*,*,*)(68,*,*,69,*,*)(68,*,*,*,69,*)(68,*,*,*,*,69)(69,70,*,*,*,*)(69,*,70,*,*,*)(69,*,*,70,*,*)(69,*,*,*,70,*)(69,*,*,*,*,70)(70,71,*,*,*,*)(70,*,71,*,*,*)(70,*,*,71,*,*)(70,*,*,*,71,*)(70,*,*,*,*,71)(71,72,*,*,*,*)(71,*,72,*,*,*)(71,*,*,72,*,*)(71,*,*,*,72,*)(71,*,*,*,*,72)(72,73,*,*,*,*)(72,*,73,*,*,*)(72,*,*,73,*,*)(72,*,*,*,73,*)(72,*,*,*,*,73)(73,74,*,*,*,*)(73,*,74,*,*,*)(73,*,*,74,*,*)(73,*,*,*,74,*)(73,*,*,*,*,74)(74,75,*,*,*,*)(74,*,75,*,*,*)(74,*,*,75,*,*)(74,*,*,*,75,*)(74,*,*,*,*,75)(75,76,*,*,*,*)(75,*,76,*,*,*)(75,*,*,76,*,*)(75,*,*,*,76,*)(75,*,*,*,*,76)(76,77,*,*,*,*)(76,*,77,*,*,*)(76,*,*,77,*,*)(76,*,*,*,77,*)(76,*,*,*,*,77)(77,78,*,*,*,*)(77,*,78,*,*,*)(77,*,*,78,*,*)(77,*,*,*,78,*)(77,*,*,*,*,78)(78,79,*,*,*,*)(78,*,79,*,*,*)(78,*,*,79,*,*)(78,*,*,*,79,*)(78,*,*,*,*,79)(79,80,*,*,*,*)(79,*,80,*,*,*)(79,*,*,80,*,*)(79,*,*,*,80,*)(79,*,*,*,*,80)(80,81,*,*,*,*)(80,*,81,*,*,*)(80,*,*,81,*,*)(80,*,*,*,81,*)(80,*,*,*,*,81)(81,82,*,*,*,*)(81,*,82,*,*,*)(81,*,*,82,*,*)(81,*,*,*,82,*)(81,*,*,*,*,82)(82,83,*,*,*,*)(82,*,83,*,*,*)(82,*,*,83,*,*)(82,*,*,*,83,*)(82,*,*,*,*,83)(83,84,*,*,*,*)(83,*,84,*,*,*)(83,*,*,84,*,*)(83,*,*,*,84,*)(83,*,*,*,*,84)(84,85,*,*,*,*)(84,*,85,*,*,*)(84,*,*,85,*,*)(84,*,*,*,85,*)(84,*,*,*,*,85)(85,86,*,*,*,*)(85,*,86,*,*,*)(85,*,*,86,*,*)(85,*,*,*,86,*)(85,*,*,*,*,86)(86,87,*,*,*,*)(86,*,87,*,*,*)(86,*,*,87,*,*)(86,*,*,*,87,*)(86,*,*,*,*,87)(87,88,*,*,*,*)(87,*,88,*,*,*)(87,*,*,88,*,*)(87,*,*,*,88,*)(87,*,*,*,*,88)(88,89,*,*,*,*)(88,*,89,*,*,*)(88,*,*,89,*,*)(88,*,*,*,89,*)(88,*,*,*,*,89)(89,90,*,*,*,*)(89,*,90,*,*,*)(89,*,*,90,*,*)(89,*,*,*,90,*)(89,*,*,*,*,90)(90,91,*,*,*,*)(90,*,91,*,*,*)(90,*,*,91,*,*)(90,*,*,*,91,*)(90,*,*,*,*,91)(91,92,*,*,*,*)(91,*,92,*,*,*)(91,*,*,92,*,*)(91,*,*,*,92,*)(91,*,*,*,*,92)(92,93,*,*,*,*)(92,*,93,*,*,*)(92,*,*,93,*,*)(92,*,*,*,93,*)(92,*,*,*,*,93)(93,94,*,*,*,*)(93,*,94,*,*,*)(93,*,*,94,*,*)(93,*,*,*,94,*)(93,*,*,*,*,94)(94,95,*,*,*,*)(94,*,95,*,*,*)(94,*,*,95,*,*)(94,*,*,*,95,*)(94,*,*,*,*,95)(95,96,*,*,*,*)(95,*,96,*,*,*)(95,*,*,96,*,*)(95,*,*,*,96,*)(95,*,*,*,*,96)(96,97,*,*,*,*)(96,*,97,*,*,*)(96,*,*,97,*,*)(96,*,*,*,97,*)(96,*,*,*,*,97)(97,98,*,*,*,*)(97,*,98,*,*,*)(97,*,*,98,*,*)(97,*,*,*,98,*)(97,*,*,*,*,98)(98,99,*,*,*,*)(98,*,99,*,*,*)(98,*,*,99,*,*)(98,*,*,*,99,*)(98,*,*,*,*,99)(99,100,*,*,*,*)(99,*,100,*,*,*)(99,*,*,100,*,*)(99,*,*,*,100,*)(99,*,*,*,*,100)(100,*,*,*,*,*) </supports>
      </extension>
      <args> x[0][1] x[0][0] x[0][2] x[1][0..2] </args>
      <args> x[0][2] x[0][1] x[0][3] x[1][1..3] </args>
      <args> x[0][3] x[0][2] x[0][4] x[1][2..4] </args>
      <args> x[0][4] x[0][3] x[0][5] x[1][3..5] </args>
      <args> x[0][5] x[0][4] x[0][6] x[1][4..6] </args>
      <args> x[0][6] x[0][5] x[0][7] x[1][5..7] </args>
      <args> x[0][7] x[0][6] x[0][8] x[1][6..8] </args>
      <args> x[0][8] x[0][7] x[0][9] x[1][7..9] </args>
      <args> x[1][0] x[0][0..1] x[1][1] x[2][0..1] </args>
      <args> x[1][9] x[0][8..9] x[1..2][8] x[2][9] </args>
      <args> x[2][0] x[1][0..1] x[2][1] x[3][0..1] </args>
      <args> x[2][9] x[1][8..9] x[2..3][8] x[3][9] </args>
      <args> x[3][0] x[2][0..1] x[3][1] x[4][0..1] </args>
      <args> x[3][9] x[2][8..9] x[3..4][8] x[4][9] </args>
      <args> x[4][0] x[3][0..1] x[4][1] x[5][0..1] </args>
      <args> x[4][9] x[3][8..9] x[4..5][8] x[5][9] </args>
      <args> x[5][0] x[4][0..1] x[5][1] x[6][0..1] </args>
      <args> x[5][9] x[4][8..9] x[5..6][8] x[6][9] </args>
      <args> x[6][0] x[5][0..1] x[6][1] x[7][0..1] </args>
      <args> x[6][9] x[5][8..9] x[6..7][8] x[7][9] </args>
      <args> x[7][0] x[6][0..1] x[7][1] x[8][0..1] </args>
      <args> x[7][9] x[6][8..9] x[7..8][8] x[8][9] </args>
      <args> x[8][0] x[7][0..1] x[8][1] x[9][0..1] </args>
      <args> x[8][9] x[7][8..9] x[8..9][8] x[9][9] </args>
      <args> x[9][1] x[8][0..2] x[9][0] x[9][2] </args>
      <args> x[9][2] x[8][1..3] x[9][1] x[9][3] </args>
      <args> x[9][3] x[8][2..4] x[9][2] x[9][4] </args>
      <args> x[9][4] x[8][3..5] x[9][3] x[9][5] </args>
      <args> x[9][5] x[8][4..6] x[9][4] x[9][6] </args>
      <args> x[9][6] x[8][5..7] x[9][5] x[9][7] </args>
      <args> x[9][7] x[8][6..8] x[9][6] x[9][8] </args>
      <args> x[9][8] x[8][7..9] x[9][7] x[9][9] </args>
    </group>
    <group>
      <extension>
        <list> %... </list>
        <supports> (1,2,*,*,*,*,*,*,*)(1,*,2,*,*,*,*,*,*)(1,*,*,2,*,*,*,*,*)(1,*,*,*,2,*,*,*,*)(1,*,*,*,*,2,*,*,*)(1,*,*,*,*,*,2,*,*)(1,*,*,*,*,*,*,2,*)(1,*,*,*,*,*,*,*,2)(2,3,*,*,*,*,*,*,*)(2,*,3,*,*,*,*,*,*)(2,*,*,3,*,*,*,*,*)(2,*,*,*,3,*,*,*,*)(2,*,*,*,*,3,*,*,*)(2,*,*,*,*,*,3,*,*)(2,*,*,*,*,*,*,3,*)(2,*,*,*,*,*,*,*,3)(3,4,*,*,*,*,*,*,*)(3,*,4,*,*,*,*,*,*)(3,*,*,4,*,*,*,*,*)(3,*,*,*,4,*,*,*,*)(3,*,*,*,*,4,*,*,*)(3,*,*,*,*,*,4,*,*)(3,*,*,*,*,*,*,4,*)(3,*,*,*,*,*,*,*,4)(4,5,*,*,*,*,*,*,*)(4,*,5,*,*,*,*,*,*)(4,*,*,5,*,*,*,*,*)(4,*,*,*,5,*,*,*,*)(4,*,*,*,*,5,*,*,*)(4,*,*,*,*,*,5,*,*)(4,*,*,*,*,*,*,5,*)(4,*,*,*,*,*,*,*,5)(5,6,*,*,*,*,*,*,*)(5,*,6,*,*,*,*,*,*)(5,*,*,6,*,*,*,*,*)(5,*,*,*,6,*,*,*,*)(5,*,*,*,*,6,*,*,*)(5,*,*,*,*,*,6,*,*)(5,*,*,*,*,*,*,6,*)(5,*,*,*,*,*,*,*,6)(6,7,*,*,*,*,*,*,*)(6,*,7,*,*,*,*,*,*)(6,*,*,7,*,*,*,*,*)(6,*,*,*,7,*,*,*,*)(6,*,*,*,*,7,*,*,*)(6,*,*,*,*,*,7,*,*)(6,*,*,*,*,*,*,7,*)(6,*,*,*,*,*,*,*,7)(7,8,*,*,*,*,*,*,*)(7,*,8,*,*,*,*,*,*)(7,*,*,8,*,*,*,*,*)(7,*,*,*,8,*,*,*,*)(7,*,*,*,*,8,*,*,*)(7,*,*,*,*,*,8,*,*)(7,*,*,*,*,*,*,8,*)(7,*,*,*,*,*,*,*,8)(8,9,*,*,*,*,*,*,*)(8,*,9,*,*,*,*,*,*)(8,*,*,9,*,*,*,*,*)(8,*,*,*,9,*,*,*,*)(8,*,*,*,*,9,*,*,*)(8,*,*,*,*,*,9,*,*)(8,*,*,*,*,*,*,9,*)(8,*,*,*,*,*,*,*,9)(9,10,*,*,*,*,*,*,*)(9,*,10,*,*,*,*,*,*)(9,*,*,10,*,*,*,*,*)(9,*,*,*,10,*,*,*,*)(9,*,*,*,*,10,*,*,*)(9,*,*,*,*,*,10,*,*)(9,*,*,*,*,*,*,10,*)(9,*,*,*,*,*,*,*,10)(10,11,*,*,*,*,*,*,*)(10,*,11,*,*,*,*,*,*)(10,*,*,11,*,*,*,*,*)(10,*,*,*,11,*,*,*,*)(10,*,*,*,*,11,*,*,*)(10,*,*,*,*,*,11,*,*)(10,*,*,*,*,*,*,11,*)(10,*,*,*,*,*,*,*,11)(11,12,*,*,*,*,*,*,*)(11,*,12,*,*,*,*,*,*)(11,*,*,12,*,*,*,*,*)(11,*,*,*,12,*,*,*,*)(11,*,*,*,*,12,*,*,*)(11,*,*,*,*,*,12,*,*)(11,*,*,*,*,*,*,12,*)(11,*,*,*,*,*,*,*,12)(12,13,*,*,*,*,*,*,*)(12,*,13,*,*,*,*,*,*)(12,*,*,13,*,*,*,*,*)(12,*,*,*,13,*,*,*,*)(12,*,*,*,*,13,*,*,*)(12,*,*,*,*,*,13,*,*)(12,*,*,*,*,*,*,13,*)(12,*,*,*,*,*,*,*,13)(13,14,*,*,*,*,*,*,*)(13,*,14,*,*,*,*,*,*)(13,*,*,14,*,*,*,*,*)(13,*,*,*,14,*,*,*,*)(13,*,*,*,*,14,*,*,*)(13,*,*,*,*,*,14,*,*)(13,*,*,*,*,*,*,14,*)(13,*,*,*,*,*,*,*,14)(14,15,*,*,*,*,*,*,*)(14,*,15,*,*,*,*,*,*)(14,*,*,15,*,*,*,*,*)(14,*,*,*,15,*,*,*,*)(14,*,*,*,*,15,*,*,*)(14,*,*,*,*,*,15,*,*)(14,*,*,*,*,*,*,15,*)(14,*,*,*,*,*,*,*,15)(15,16,*,*,*,*,*,*,*)(15,*,16,*,*,*,*,*,*)(15,*,*,16,*,*,*,*,*)(15,*,*,*,16,*,*,*,*)(15,*,*,*,*,16,*,*,*)(15,*,*,*,*,*,16,*,*)(15,*,*,*,*,*,*,16,*)(15,*,*,*,*,*,*,*,16)(16,17,*,*,*,*,*,*,*)(16,*,17,*,*,*,*,*,*)(16,*,*,17,*,*,*,*,*)(16,*,*,*,17,*,*,*,*)(16,*,*,*,*,17,*,*,*)(16,*,*,*,*,*,17,*,*)(16,*,*,*,*,*,*,17,*)(16,*,*,*,*,*,*,*,17)(17,18,*,*,*,*,*,*,*)(17,*,18,*,*,*,*,*,*)(17,*,*,18,*,*,*,*,*)(17,*,*,*,18,*,*,*,*)(17,*,*,*,*,18,*,*,*)(17,*,*,*,*,*,18,*,*)(17,*,*,*,*,*,*,18,*)(17,*,*,*,*,*,*,*,18)(18,19,*,*,*,*,*,*,*)(18,*,19,*,*,*,*,*,*)(18,*,*,19,*,*,*,*,*)(18,*,*,*,19,*,*,*,*)(18,*,*,*,*,19,*,*,*)(18,*,*,*,*,*,19,*,*)(18,*,*,*,*,*,*,19,*)(18,*,*,*,*,*,*,*,19)(19,20,*,*,*,*,*,*,*)(19,*,20,*,*,*,*,*,*)(19,*,*,20,*,*,*,*,*)(19,*,*,*,20,*,*,*,*)(19,*,*,*,*,20,*,*,*)(19,*,*,*,*,*,20,*,*)(19,*,*,*,*,*,*,20,*)(19,*,*,*,*,*,*,*,20)(20,21,*,*,*,*,*,*,*)(20,*,21,*,*,*,*,*,*)(20,*,*,21,*,*,*,*,*)(20,*,*,*,21,*,*,*,*)(20,*,*,*,*,21,*,*,*)(20,*,*,*,*,*,21,*,*)(20,*,*,*,*,*,*,21,*)(20,*,*,*,*,*,*,*,21)(21,22,*,*,*,*,*,*,*)(21,*,22,*,*,*,*,*,*)(21,*,*,22,*,*,*,*,*)(21,*,*,*,22,*,*,*,*)(21,*,*,*,*,22,*,*,*)(21,*,*,*,*,*,22,*,*)(21,*,*,*,*,*,*,22,*)(21,*,*,*,*,*,*,*,22)(22,23,*,*,*,*,*,*,*)(22,*,23,*,*,*,*,*,*)(22,*,*,23,*,*,*,*,*)(22,*,*,*,23,*,*,*,*)(22,*,*,*,*,23,*,*,*)(22,*,*,*,*,*,23,*,*)(22,*,*,*,*,*,*,23,*)(22,*,*,*,*,*,*,*,23)(23,24,*,*,*,*,*,*,*)(23,*,24,*,*,*,*,*,*)(23,*,*,24,*,*,*,*,*)(23,*,*,*,24,*,*,*,*)(23,*,*,*,*,24,*,*,*)(23,*,*,*,*,*,24,*,*)(23,*,*,*,*,*,*,24,*)(23,*,*,*,*,*,*,*,24)(24,25,*,*,*,*,*,*,*)(24,*,25,*,*,*,*,*,*)(24,*,*,25,*,*,*,*,*)(24,*,*,*,25,*,*,*,*)(24,*,*,*,*,25,*,*,*)(24,*,*,*,*,*,25,*,*)(24,*,*,*,*,*,*,25,*)(24,*,*,*,*,*,*,*,25)(25,26,*,*,*,*,*,*,*)(25,*,26,*,*,*,*,*,*)(25,*,*,26,*,*,*,*,*)(25,*,*,*,26,*,*,*,*)(25,*,*,*,*,26,*,*,*)(25,*,*,*,*,*,26,*,*)(25,*,*,*,*,*,*,26,*)(25,*,*,*,*,*,*,*,26)(26,27,*,*,*,*,*,*,*)(26,*,27,*,*,*,*,*,*)(26,*,*,27,*,*,*,*,*)(26,*,*,*,27,*,*,*,*)(26,*,*,*,*,27,*,*,*)(26,*,*,*,*,*,27,*,*)(26,*,*,*,*,*,*,27,*)(26,*,*,*,*,*,*,*,27)(27,28,*,*,*,*,*,*,*)(27,*,28,*,*,*,*,*,*)(27,*,*,28,*,*,*,*,*)(27,*,*,*,28,*,*,*,*)(27,*,*,*,*,28,*,*,*)(27,*,*,*,*,*,28,*,*)(27,*,*,*,*,*,*,28,*)(27,*,*,*,*,*,*,*,28)(28,29,*,*,*,*,*,*,*)(28,*,29,*,*,*,*,*,*)(28,*,*,29,*,*,*,*,*)(28,*,*,*,29,*,*,*,*)(28,*,*,*,*,29,*,*,*)(28,*,*,*,*,*,29,*,*)(28,*,*,*,*,*,*,29,*)(28,*,*,*,*,*,*,*,29)(29,30,*,*,*,*,*,*,*)(29,*,30,*,*,*,*,*,*)(29,*,*,30,*,*,*,*,*)(29,*,*,*,30,*,*,*,*)(29,*,*,*,*,30,*,*,*)(29,*,*,*,*,*,30,*,*)(29,*,*,*,*,*,*,30,*)(29,*,*,*,*,*,*,*,30)(30,31,*,*,*,*,*,*,*)(30,*,31,*,*,*,*,*,*)(30,*,*,31,*,*,*,*,*)(30,*,*,*,31,*,*,*,*)(30,*,*,*,*,31,*,*,*)(30,*,*,*,*,*,31,*,*)(30,*,*,*,*,*,*,31,*)(30,*,*,*,*,*,*,*,31)(31,32,*,*,*,*,*,*,*)(31,*,32,*,*,*,*,*,*)(31,*,*,32,*,*,*,*,*)(31,*,*,*,32,*,*,*,*)(31,*,*,*,*,32,*,*,*)(31,*,*,*,*,*,32,*,*)(31,*,*,*,*,*,*,32,*)(31,*,*,*,*,*,*,*,32)(32,33,*,*,*,*,*,*,*)(32,*,33,*,*,*,*,*,*)(32,*,*,33,*,*,*,*,*)(32,*,*,*,33,*,*,*,*)(32,*,*,*,*,33,*,*,*)(32,*,*,*,*,*,33,*,*)(32,*,*,*,*,*,*,33,*)(32,*,*,*,*,*,*,*,33)(33,34,*,*,*,*,*,*,*)(33,*,34,*,*,*,*,*,*)(33,*,*,34,*,*,*,*,*)(33,*,*,*,34,*,*,*,*)(33,*,*,*,*,34,*,*,*)(33,*,*,*,*,*,34,*,*)(33,*,*,*,*,*,*,34,*)(33,*,*,*,*,*,*,*,34)(34,35,*,*,*,*,*,*,*)(34,*,35,*,*,*,*,*,*)(34,*,*,35,*,*,*,*,*)(34,*,*,*,35,*,*,*,*)(34,*,*,*,*,35,*,*,*)(34,*,*,*,*,*,35,*,*)(34,*,*,*,*,*,*,35,*)(34,*,*,*,*,*,*,*,35)(35,36,*,*,*,*,*,*,*)(35,*,36,*,*,*,*,*,*)(35,*,*,36,*,*,*,*,*)(35,*,*,*,36,*,*,*,*)(35,*,*,*,*,36,*,*,*)(35,*,*,*,*,*,36,*,*)(35,*,*,*,*,*,*,36,*)(35,*,*,*,*,*,*,*,36)(36,37,*,*,*,*,*,*,*)(36,*,37,*,*,*,*,*,*)(36,*,*,37,*,*,*,*,*)(36,*,*,*,37,*,*,*,*)(36,*,*,*,*,37,*,*,*)(36,*,*,*,*,*,37,*,*)(36,*,*,*,*,*,*,37,*)(36,*,*,*,*,*,*,*,37)(37,38,*,*,*,*,*,*,*)(37,*,38,*,*,*,*,*,*)(37,*,*,38,*,*,*,*,*)(37,*,*,*,38,*,*,*,*)(37,*,*,*,*,38,*,*,*)(37,*,*,*,*,*,38,*,*)(37,*,*,*,*,*,*,38,*)(37,*,*,*,*,*,*,*,38)(38,39,*,*,*,*,*,*,*)(38,*,39,*,*,*,*,*,*)(38,*,*,39,*,*,*,*,*)(38,*,*,*,39,*,*,*,*)(38,*,*,*,*,39,*,*,*)(38,*,*,*,*,*,39,*,*)(38,*,*,*,*,*,*,39,*)(38,*,*,*,*,*,*,*,39)(39,40,*,*,*,*,*,*,*)(39,*,40,*,*,*,*,*,*)(39,*,*,40,*,*,*,*,*)(39,*,*,*,40,*,*,*,*)(39,*,*,*,*,40,*,*,*)(39,*,*,*,*,*,40,*,*)(39,*,*,*,*,*,*,40,*)(39,*,*,*,*,*,*,*,40)(40,41,*,*,*,*,*,*,*)(40,*,41,*,*,*,*,*,*)(40,*,*,41,*,*,*,*,*)(40,*,*,*,41,*,*,*,*)(40,*,*,*,*,41,*,*,*)(40,*,*,*,*,*,41,*,*)(40,*,*,*,*,*,*,41,*)(40,*,*,*,*,*,*,*,41)(41,42,*,*,*,*,*,*,*)(41,*,42,*,*,*,*,*,*)(41,*,*,42,*,*,*,*,*)(41,*,*,*,42,*,*,*,*)(41,*,*,*,*,42,*,*,*)(41,*,*,*,*,*,42,*,*)(41,*,*,*,*,*,*,42,*)(41,*,*,*,*,*,*,*,42)(42,43,*,*,*,*,*,*,*)(42,*,43,*,*,*,*,*,*)(42,*,*,43,*,*,*,*,*)(42,*,*,*,43,*,*,*,*)(42,*,*,*,*,43,*,*,*)(42,*,*,*,*,*,43,*,*)(42,*,*,*,*,*,*,43,*)(42,*,*,*,*,*,*,*,43)(43,44,*,*,*,*,*,*,*)(43,*,44,*,*,*,*,*,*)(43,*,*,44,*,*,*,*,*)(43,*,*,*,44,*,*,*,*)(43,*,*,*,*,44,*,*,*)(43,*,*,*,*,*,44,*,*)(43,*,*,*,*,*,*,44,*)(43,*,*,*,*,*,*,*,44)(44,45,*,*,*,*,*,*,*)(44,*,45,*,*,*,*,*,*)(44,*,*,45,*,*,*,*,*)(44,*,*,*,45,*,*,*,*)(44,*,*,*,*,45,*,*,*)(44,*,*,*,*,*,45,*,*)(44,*,*,*,*,*,*,45,*)(44,*,*,*,*,*,*,*,45)(45,46,*,*,*,*,*,*,*)(45,*,46,*,*,*,*,*,*)(45,*,*,46,*,*,*,*,*)(45,*,*,*,46,*,*,*,*)(45,*,*,*,*,46,*,*,*)(45,*,*,*,*,*,46,*,*)(45,*,*,*,*,*,*,46,*)(45,*,*,*,*,*,*,*,46)(46,47,*,*,*,*,*,*,*)(46,*,47,*,*,*,*,*,*)(46,*,*,47,*,*,*,*,*)(46,*,*,*,47,*,*,*,*)(46,*,*,*,*,47,*,*,*)(46,*,*,*,*,*,47,*,*)(46,*,*,*,*,*,*,47,*)(46,*,*,*,*,*,*,*,47)(47,48,*,*,*,*,*,*,*)(47,*,48,*,*,*,*,*,*)(47,*,*,48,*,*,*,*,*)(47,*,*,*,48,*,*,*,*)(47,*,*,*,*,48,*,*,*)(47,*,*,*,*,*,48,*,*)(47,*,*,*,*,*,*,48,*)(47,*,*,*,*,*,*,*,48)(48,49,*,*,*,*,*,*,*)(48,*,49,*,*,*,*,*,*)(48,*,*,49,*,*,*,*,*)(48,*,*,*,49,*,*,*,*)(48,*,*,*,*,49,*,*,*)(48,*,*,*,*,*,49,*,*)(48,*,*,*,*,*,*,49,*)(48,*,*,*,*,*,*,*,49)(49,50,*,*,*,*,*,*,*)(49,*,50,*,*,*,*,*,*)(49,*,*,50,*,*,*,*,*)(49,*,*,*,50,*,*,*,*)(49,*,*,*,*,50,*,*,*)(49,*,*,*,*,*,50,*,*)(49,*,*,*,*,*,*,50,*)(49,*,*,*,*,*,*,*,50)(50,51,*,*,*,*,*,*,*)(50,*,51,*,*,*,*,*,*)(50,*,*,51,*,*,*,*,*)(50,*,*,*,51,*,*,*,*)(50,*,*,*,*,51,*,*,*)(50,*,*,*,*,*,51,*,*)(50,*,*,*,*,*,*,51,*)(50,*,*,*,*,*,*,*,51)(51,52,*,*,*,*,*,*,*)(51,*,52,*,*,*,*,*,*)(51,*,*,52,*,*,*,*,*)(51,*,*,*,52,*,*,*,*)(51,*,*,*,*,52,*,*,*)(51,*,*,*,*,*,52,*,*)(51,*,*,*,*,*,*,52,*)(51,*,*,*,*,*,*,*,52)(52,53,*,*,*,*,*,*,*)(52,*,53,*,*,*,*,*,*)(52,*,*,53,*,*,*,*,*)(52,*,*,*,53,*,*,*,*)(52,*,*,*,*,53,*,*,*)(52,*,*,*,*,*,53,*,*)(52,*,*,*,*,*,*,53,*)(52,*,*,*,*,*,*,*,53)(53,54,*,*,*,*,*,*,*)(53,*,54,*,*,*,*,*,*)(53,*,*,54,*,*,*,*,*)(53,*,*,*,54,*,*,*,*)(53,*,*,*,*,54,*,*,*)(53,*,*,*,*,*,54,*,*)(53,*,*,*,*,*,*,54,*)(53,*,*,*,*,*,*,*,54)(54,55,*,*,*,*,*,*,*)(54,*,55,*,*,*,*,*,*)(54,*,*,55,*,*,*,*,*)(54,*,*,*,55,*,*,*,*)(54,*,*,*,*,55,*,*,*)(54,*,*,*,*,*,55,*,*)(54,*,*,*,*,*,*,55,*)(54,*,*,*,*,*,*,*,55)(55,56,*,*,*,*,*,*,*)(55,*,56,*,*,*,*,*,*)(55,*,*,56,*,*,*,*,*)(55,*,*,*,56,*,*,*,*)(55,*,*,*,*,56,*,*,*)(55,*,*,*,*,*,56,*,*)(55,*,*,*,*,*,*,56,*)(55,*,*,*,*,*,*,*,56)(56,57,*,*,*,*,*,*,*)(56,*,57,*,*,*,*,*,*)(56,*,*,57,*,*,*,*,*)(56,*,*,*,57,*,*,*,*)(56,*,*,*,*,57,*,*,*)(56,*,*,*,*,*,57,*,*)(56,*,*,*,*,*,*,57,*)(56,*,*,*,*,*,*,*,57)(57,58,*,*,*,*,*,*,*)(57,*,58,*,*,*,*,*,*)(57,*,*,58,*,*,*,*,*)(57,*,*,*,58,*,*,*,*)(57,*,*,*,*,58,*,*,*)(57,*,*,*,*,*,58,*,*)(57,*,*,*,*,*,*,58,*)(57,*,*,*,*,*,*,*,58)(58,59,*,*,*,*,*,*,*)(58,*,59,*,*,*,*,*,*)(58,*,*,59,*,*,*,*,*)(58,*,*,*,59,*,*,*,*)(58,*,*,*,*,59,*,*,*)(58,*,*,*,*,*,59,*,*)(58,*,*,*,*,*,*,59,*)(58,*,*,*,*,*,*,*,59)(59,60,*,*,*,*,*,*,*)(59,*,60,*,*,*,*,*,*)(59,*,*,60,*,*,*,*,*)(59,*,*,*,60,*,*,*,*)(59,*,*,*,*,60,*,*,*)(59,*,*,*,*,*,60,*,*)(59,*,*,*,*,*,*,60,*)(59,*,*,*,*,*,*,*,60)(60,61,*,*,*,*,*,*,*)(60,*,61,*,*,*,*,*,*)(60,*,*,61,*,*,*,*,*)(60,*,*,*,61,*,*,*,*)(60,*,*,*,*,61,*,*,*)(60,*,*,*,*,*,61,*,*)(60,*,*,*,*,*,*,61,*)(60,*,*,*,*,*,*,*,61)(61,62,*,*,*,*,*,*,*)(61,*,62,*,*,*,*,*,*)(61,*,*,62,*,*,*,*,*)(61,*,*,*,62,*,*,*,*)(61,*,*,*,*,62,*,*,*)(61,*,*,*,*,*,62,*,*)(61,*,*,*,*,*,*,62,*)(61,*,*,*,*,*,*,*,62)(62,63,*,*,*,*,*,*,*)(62,*,63,*,*,*,*,*,*)(62,*,*,63,*,*,*,*,*)(62,*,*,*,63,*,*,*,*)(62,*,*,*,*,63,*,*,*)(62,*,*,*,*,*,63,*,*)(62,*,*,*,*,*,*,63,*)(62,*,*,*,*,*,*,*,63)(63,64,*,*,*,*,*,*,*)(63,*,64,*,*,*,*,*,*)(63,*,*,64,*,*,*,*,*)(63,*,*,*,64,*,*,*,*)(63,*,*,*,*,64,*,*,*)(63,*,*,*,*,*,64,*,*)(63,*,*,*,*,*,*,64,*)(63,*,*,*,*,*,*,*,64)(64,65,*,*,*,*,*,*,*)(64,*,65,*,*,*,*,*,*)(64,*,*,65,*,*,*,*,*)(64,*,*,*,65,*,*,*,*)(64,*,*,*,*,65,*,*,*)(64,*,*,*,*,*,65,*,*)(64,*,*,*,*,*,*,65,*)(64,*,*,*,*,*,*,*,65)(65,66,*,*,*,*,*,*,*)(65,*,66,*,*,*,*,*,*)(65,*,*,66,*,*,*,*,*)(65,*,*,*,66,*,*,*,*)(65,*,*,*,*,66,*,*,*)(65,*,*,*,*,*,66,*,*)(65,*,*,*,*,*,*,66,*)(65,*,*,*,*,*,*,*,66)(66,67,*,*,*,*,*,*,*)(66,*,67,*,*,*,*,*,*)(66,*,*,67,*,*,*,*,*)(66,*,*,*,67,*,*,*,*)(66,*,*,*,*,67,*,*,*)(66,*,*,*,*,*,67,*,*)(66,*,*,*,*,*,*,67,*)(66,*,*,*,*,*,*,*,67)(67,68,*,*,*,*,*,*,*)(67,*,68,*,*,*,*,*,*)(67,*,*,68,*,*,*,*,*)(67,*,*,*,68,*,*,*,*)(67,*,*,*,*,68,*,*,*)(67,*,*,*,*,*,68,*,*)(67,*,*,*,*,*,*,68,*)(67,*,*,*,*,*,*,*,68)(68,69,*,*,*,*,*,*,*)(68,*,69,*,*,*,*,*,*)(68,*,*,69,*,*,*,*,*)(68,*,*,*,69,*,*,*,*)(68,*,*,*,*,69,*,*,*)(68,*,*,*,*,*,69,*,*)(68,*,*,*,*,*,*,69,*)(68,*,*,*,*,*,*,*,69)(69,70,*,*,*,*,*,*,*)(69,*,70,*,*,*,*,*,*)(69,*,*,70,*,*,*,*,*)(69,*,*,*,70,*,*,*,*)(69,*,*,*,*,70,*,*,*)(69,*,*,*,*,*,70,*,*)(69,*,*,*,*,*,*,70,*)(69,*,*,*,*,*,*,*,70)(70,71,*,*,*,*,*,*,*)(70,*,71,*,*,*,*,*,*)(70,*,*,71,*,*,*,*,*)(70,*,*,*,71,*,*,*,*)(70,*,*,*,*,71,*,*,*)(70,*,*,*,*,*,71,*,*)(70,*,*,*,*,*,*,71,*)(70,*,*,*,*,*,*,*,71)(71,72,*,*,*,*,*,*,*)(71,*,72,*,*,*,*,*,*)(71,*,*,72,*,*,*,*,*)(71,*,*,*,72,*,*,*,*)(71,*,*,*,*,72,*,*,*)(71,*,*,*,*,*,72,*,*)(71,*,*,*,*,*,*,72,*)(71,*,*,*,*,*,*,*,72)(72,73,*,*,*,*,*,*,*)(72,*,73,*,*,*,*,*,*)(72,*,*,73,*,*,*,*,*)(72,*,*,*,73,*,*,*,*)(72,*,*,*,*,73,*,*,*)(72,*,*,*,*,*,73,*,*)(72,*,*,*,*,*,*,73,*)(72,*,*,*,*,*,*,*,73)(73,74,*,*,*,*,*,*,*)(73,*,74,*,*,*,*,*,*)(73,*,*,74,*,*,*,*,*)(73,*,*,*,74,*,*,*,*)(73,*,*,*,*,74,*,*,*)(73,*,*,*,*,*,74,*,*)(73,*,*,*,*,*,*,74,*)(73,*,*,*,*,*,*,*,74)(74,75,*,*,*,*,*,*,*)(74,*,75,*,*,*,*,*,*)(74,*,*,75,*,*,*,*,*)(74,*,*,*,75,*,*,*,*)(74,*,*,*,*,75,*,*,*)(74,*,*,*,*,*,75,*,*)(74,*,*,*,*,*,*,75,*)(74,*,*,*,*,*,*,*,75)(75,76,*,*,*,*,*,*,*)(75,*,76,*,*,*,*,*,*)(75,*,*,76,*,*,*,*,*)(75,*,*,*,76,*,*,*,*)(75,*,*,*,*,76,*,*,*)(75,*,*,*,*,*,76,*,*)(75,*,*,*,*,*,*,76,*)(75,*,*,*,*,*,*,*,76)(76,77,*,*,*,*,*,*,*)(76,*,77,*,*,*,*,*,*)(76,*,*,77,*,*,*,*,*)(76,*,*,*,77,*,*,*,*)(76,*,*,*,*,77,*,*,*)(76,*,*,*,*,*,77,*,*)(76,*,*,*,*,*,*,77,*)(76,*,*,*,*,*,*,*,77)(77,78,*,*,*,*,*,*,*)(77,*,78,*,*,*,*,*,*)(77,*,*,78,*,*,*,*,*)(77,*,*,*,78,*,*,*,*)(77,*,*,*,*,78,*,*,*)(77,*,*,*,*,*,78,*,*)(77,*,*,*,*,*,*,78,*)(77,*,*,*,*,*,*,*,78)(78,79,*,*,*,*,*,*,*)(78,*,79,*,*,*,*,*,*)(78,*,*,79,*,*,*,*,*)(78,*,*,*,79,*,*,*,*)(78,*,*,*,*,79,*,*,*)(78,*,*,*,*,*,79,*,*)(78,*,*,*,*,*,*,79,*)(78,*,*,*,*,*,*,*,79)(79,80,*,*,*,*,*,*,*)(79,*,80,*,*,*,*,*,*)(79,*,*,80,*,*,*,*,*)(79,*,*,*,80,*,*,*,*)(79,*,*,*,*,80,*,*,*)(79,*,*,*,*,*,80,*,*)(79,*,*,*,*,*,*,80,*)(79,*,*,*,*,*,*,*,80)(80,81,*,*,*,*,*,*,*)(80,*,81,*,*,*,*,*,*)(80,*,*,81,*,*,*,*,*)(80,*,*,*,81,*,*,*,*)(80,*,*,*,*,81,*,*,*)(80,*,*,*,*,*,81,*,*)(80,*,*,*,*,*,*,81,*)(80,*,*,*,*,*,*,*,81)(81,82,*,*,*,*,*,*,*)(81,*,82,*,*,*,*,*,*)(81,*,*,82,*,*,*,*,*)(81,*,*,*,82,*,*,*,*)(81,*,*,*,*,82,*,*,*)(81,*,*,*,*,*,82,*,*)(81,*,*,*,*,*,*,82,*)(81,*,*,*,*,*,*,*,82)(82,83,*,*,*,*,*,*,*)(82,*,83,*,*,*,*,*,*)(82,*,*,83,*,*,*,*,*)(82,*,*,*,83,*,*,*,*)(82,*,*,*,*,83,*,*,*)(82,*,*,*,*,*,83,*,*)(82,*,*,*,*,*,*,83,*)(82,*,*,*,*,*,*,*,83)(83,84,*,*,*,*,*,*,*)(83,*,84,*,*,*,*,*,*)(83,*,*,84,*,*,*,*,*)(83,*,*,*,84,*,*,*,*)(83,*,*,*,*,84,*,*,*)(83,*,*,*,*,*,84,*,*)(83,*,*,*,*,*,*,84,*)(83,*,*,*,*,*,*,*,84)(84,85,*,*,*,*,*,*,*)(84,*,85,*,*,*,*,*,*)(84,*,*,85,*,*,*,*,*)(84,*,*,*,85,*,*,*,*)(84,*,*,*,*,85,*,*,*)(84,*,*,*,*,*,85,*,*)(84,*,*,*,*,*,*,85,*)(84,*,*,*,*,*,*,*,85)(85,86,*,*,*,*,*,*,*)(85,*,86,*,*,*,*,*,*)(85,*,*,86,*,*,*,*,*)(85,*,*,*,86,*,*,*,*)(85,*,*,*,*,86,*,*,*)(85,*,*,*,*,*,86,*,*)(85,*,*,*,*,*,*,86,*)(85,*,*,*,*,*,*,*,86)(86,87,*,*,*,*,*,*,*)(86,*,87,*,*,*,*,*,*)(86,*,*,87,*,*,*,*,*)(86,*,*,*,87,*,*,*,*)(86,*,*,*,*,87,*,*,*)(86,*,*,*,*,*,87,*,*)(86,*,*,*,*,*,*,87,*)(86,*,*,*,*,*,*,*,87)(87,88,*,*,*,*,*,*,*)(87,*,88,*,*,*,*,*,*)(87,*,*,88,*,*,*,*,*)(87,*,*,*,88,*,*,*,*)(87,*,*,*,*,88,*,*,*)(87,*,*,*,*,*,88,*,*)(87,*,*,*,*,*,*,88,*)(87,*,*,*,*,*,*,*,88)(88,89,*,*,*,*,*,*,*)(88,*,89,*,*,*,*,*,*)(88,*,*,89,*,*,*,*,*)(88,*,*,*,89,*,*,*,*)(88,*,*,*,*,89,*,*,*)(88,*,*,*,*,*,89,*,*)(88,*,*,*,*,*,*,89,*)(88,*,*,*,*,*,*,*,89)(89,90,*,*,*,*,*,*,*)(89,*,90,*,*,*,*,*,*)(89,*,*,90,*,*,*,*,*)(89,*,*,*,90,*,*,*,*)(89,*,*,*,*,90,*,*,*)(89,*,*,*,*,*,90,*,*)(89,*,*,*,*,*,*,90,*)(89,*,*,*,*,*,*,*,90)(90,91,*,*,*,*,*,*,*)(90,*,91,*,*,*,*,*,*)(90,*,*,91,*,*,*,*,*)(90,*,*,*,91,*,*,*,*)(90,*,*,*,*,91,*,*,*)(90,*,*,*,*,*,91,*,*)(90,*,*,*,*,*,*,91,*)(90,*,*,*,*,*,*,*,91)(91,92,*,*,*,*,*,*,*)(91,*,92,*,*,*,*,*,*)(91,*,*,92,*,*,*,*,*)(91,*,*,*,92,*,*,*,*)(91,*,*,*,*,92,*,*,*)(91,*,*,*,*,*,92,*,*)(91,*,*,*,*,*,*,92,*)(91,*,*,*,*,*,*,*,92)(92,93,*,*,*,*,*,*,*)(92,*,93,*,*,*,*,*,*)(92,*,*,93,*,*,*,*,*)(92,*,*,*,93,*,*,*,*)(92,*,*,*,*,93,*,*,*)(92,*,*,*,*,*,93,*,*)(92,*,*,*,*,*,*,93,*)(92,*,*,*,*,*,*,*,93)(93,94,*,*,*,*,*,*,*)(93,*,94,*,*,*,*,*,*)(93,*,*,94,*,*,*,*,*)(93,*,*,*,94,*,*,*,*)(93,*,*,*,*,94,*,*,*)(93,*,*,*,*,*,94,*,*)(93,*,*,*,*,*,*,94,*)(93,*,*,*,*,*,*,*,94)(94,95,*,*,*,*,*,*,*)(94,*,95,*,*,*,*,*,*)(94,*,*,95,*,*,*,*,*)(94,*,*,*,95,*,*,*,*)(94,*,*,*,*,95,*,*,*)(94,*,*,*,*,*,95,*,*)(94,*,*,*,*,*,*,95,*)(94,*,*,*,*,*,*,*,95)(95,96,*,*,*,*,*,*,*)(95,*,96,*,*,*,*,*,*)(95,*,*,96,*,*,*,*,*)(95,*,*,*,96,*,*,*,*)(95,*,*,*,*,96,*,*,*)(95,*,*,*,*,*,96,*,*)(95,*,*,*,*,*,*,96,*)(95,*,*,*,*,*,*,*,96)(96,97,*,*,*,*,*,*,*)(96,*,97,*,*,*,*,*,*)(96,*,*,97,*,*,*,*,*)(96,*,*,*,97,*,*,*,*)(96,*,*,*,*,97,*,*,*)(96,*,*,*,*,*,97,*,*)(96,*,*,*,*,*,*,97,*)(96,*,*,*,*,*,*,*,97)(97,98,*,*,*,*,*,*,*)(97,*,98,*,*,*,*,*,*)(97,*,*,98,*,*,*,*,*)(97,*,*,*,98,*,*,*,*)(97,*,*,*,*,98,*,*,*)(97,*,*,*,*,*,98,*,*)(97,*,*,*,*,*,*,98,*)(97,*,*,*,*,*,*,*,98)(98,99,*,*,*,*,*,*,*)(98,*,99,*,*,*,*,*,*)(98,*,*,99,*,*,*,*,*)(98,*,*,*,99,*,*,*,*)(98,*,*,*,*,99,*,*,*)(98,*,*,*,*,*,99,*,*)(98,*,*,*,*,*,*,99,*)(98,*,*,*,*,*,*,*,99)(99,100,*,*,*,*,*,*,*)(99,*,100,*,*,*,*,*,*)(99,*,*,100,*,*,*,*,*)(99,*,*,*,100,*,*,*,*)(99,*,*,*,*,100,*,*,*)(99,*,*,*,*,*,100,*,*)(99,*,*,*,*,*,*,100,*)(99,*,*,*,*,*,*,*,100)(100,*,*,*,*,*,*,*,*) </supports>
      </extension>
      <args> x[1][1] x[0][0..2] x[1][0] x[1][2] x[2][0..2] </args>
      <args> x[1][2] x[0][1..3] x[1][1] x[1][3] x[2][1..3] </args>
      <args> x[1][3] x[0][2..4] x[1][2] x[1][4] x[2][2..4] </args>
      <args> x[1][4] x[0][3..5] x[1][3] x[1][5] x[2][3..5] </args>
      <args> x[1][5] x[0][4..6] x[1][4] x[1][6] x[2][4..6] </args>
      <args> x[1][6] x[0][5..7] x[1][5] x[1][7] x[2][5..7] </args>
      <args> x[1][7] x[0][6..8] x[1][6] x[1][8] x[2][6..8] </args>
      <args> x[1][8] x[0][7..9] x[1][7] x[1][9] x[2][7..9] </args>
      <args> x[2][1] x[1][0..2] x[2][0] x[2][2] x[3][0..2] </args>
      <args> x[2][2] x[1][1..3] x[2][1] x[2][3] x[3][1..3] </args>
      <args> x[2][3] x[1][2..4] x[2][2] x[2][4] x[3][2..4] </args>
      <args> x[2][4] x[1][3..5] x[2][3] x[2][5] x[3][3..5] </args>
      <args> x[2][5] x[1][4..6] x[2][4] x[2][6] x[3][4..6] </args>
      <args> x[2][6] x[1][5..7] x[2][5] x[2][7] x[3][5..7] </args>
      <args> x[2][7] x[1][6..8] x[2][6] x[2][8] x[3][6..8] </args>
      <args> x[2][8] x[1][7..9] x[2][7] x[2][9] x[3][7..9] </args>
      <args> x[3][1] x[2][0..2] x[3][0] x[3][2] x[4][0..2] </args>
      <args> x[3][2] x[2][1..3] x[3][1] x[3][3] x[4][1..3] </args>
      <args> x[3][3] x[2][2..4] x[3][2] x[3][4] x[4][2..4] </args>
      <args> x[3][4] x[2][3..5] x[3][3] x[3][5] x[4][3..5] </args>
      <args> x[3][5] x[2][4..6] x[3][4] x[3][6] x[4][4..6] </args>
      <args> x[3][6] x[2][5..7] x[3][5] x[3][7] x[4][5..7] </args>
      <args> x[3][7] x[2][6..8] x[3][6] x[3][8] x[4][6..8] </args>
      <args> x[3][8] x[2][7..9] x[3][7] x[3][9] x[4][7..9] </args>
      <args> x[4][1] x[3][0..2] x[4][0] x[4][2] x[5][0..2] </args>
      <args> x[4][2] x[3][1..3] x[4][1] x[4][3] x[5][1..3] </args>
      <args> x[4][3] x[3][2..4] x[4][2] x[4][4] x[5][2..4] </args>
      <args> x[4][4] x[3][3..5] x[4][3] x[4][5] x[5][3..5] </args>
      <args> x[4][5] x[3][4..6] x[4][4] x[4][6] x[5][4..6] </args>
      <args> x[4][6] x[3][5..7] x[4][5] x[4][7] x[5][5..7] </args>
      <args> x[4][7] x[3][6..8] x[4][6] x[4][8] x[5][6..8] </args>
      <args> x[4][8] x[3][7..9] x[4][7] x[4][9] x[5][7..9] </args>
      <args> x[5][1] x[4][0..2] x[5][0] x[5][2] x[6][0..2] </args>
      <args> x[5][2] x[4][1..3] x[5][1] x[5][3] x[6][1..3] </args>
      <args> x[5][3] x[4][2..4] x[5][2] x[5][4] x[6][2..4] </args>
      <args> x[5][4] x[4][3..5] x[5][3] x[5][5] x[6][3..5] </args>
      <args> x[5][5] x[4][4..6] x[5][4] x[5][6] x[6][4..6] </args>
      <args> x[5][6] x[4][5..7] x[5][5] x[5][7] x[6][5..7] </args>
      <args> x[5][7] x[4][6..8] x[5][6] x[5][8] x[6][6..8] </args>
      <args> x[5][8] x[4][7..9] x[5][7] x[5][9] x[6][7..9] </args>
      <args> x[6][1] x[5][0..2] x[6][0] x[6][2] x[7][0..2] </args>
      <args> x[6][2] x[5][1..3] x[6][1] x[6][3] x[7][1..3] </args>
      <args> x[6][3] x[5][2..4] x[6][2] x[6][4] x[7][2..4] </args>
      <args> x[6][4] x[5][3..5] x[6][3] x[6][5] x[7][3..5] </args>
      <args> x[6][5] x[5][4..6] x[6][4] x[6][6] x[7][4..6] </args>
      <args> x[6][6] x[5][5..7] x[6][5] x[6][7] x[7][5..7] </args>
      <args> x[6][7] x[5][6..8] x[6][6] x[6][8] x[7][6..8] </args>
      <args> x[6][8] x[5][7..9] x[6][7] x[6][9] x[7][7..9] </args>
      <args> x[7][1] x[6][0..2] x[7][0] x[7][2] x[8][0..2] </args>
      <args> x[7][2] x[6][1..3] x[7][1] x[7][3] x[8][1..3] </args>
      <args> x[7][3] x[6][2..4] x[7][2] x[7][4] x[8][2..4] </args>
      <args> x[7][4] x[6][3..5] x[7][3] x[7][5] x[8][3..5] </args>
      <args> x[7][5] x[6][4..6] x[7][4] x[7][6] x[8][4..6] </args>
      <args> x[7][6] x[6][5..7] x[7][5] x[7][7] x[8][5..7] </args>
      <args> x[7][7] x[6][6..8] x[7][6] x[7][8] x[8][6..8] </args>
      <args> x[7][8] x[6][7..9] x[7][7] x[7][9] x[8][7..9] </args>
      <args> x[8][1] x[7][0..2] x[8][0] x[8][2] x[9][0..2] </args>
      <args> x[8][2] x[7][1..3] x[8][1] x[8][3] x[9][1..3] </args>
      <args> x[8][3] x[7][2..4] x[8][2] x[8][4] x[9][2..4] </args>
      <args> x[8][4] x[7][3..5] x[8][3] x[8][5] x[9][3..5] </args>
      <args> x[8][5] x[7][4..6] x[8][4] x[8][6] x[9][4..6] </args>
      <args> x[8][6] x[7][5..7] x[8][5] x[8][7] x[9][5..7] </args>
      <args> x[8][7] x[7][6..8] x[8][6] x[8][8] x[9][6..8] </args>
      <args> x[8][8] x[7][7..9] x[8][7] x[8][9] x[9][7..9] </args>
    </group>
  </constraints>
</instance>
